p cnf 30 30
19 -21 23 0
-22 11 27 0
-11 15 7 0
11 -24 -3 0
5 -6 30 0
24 23 -5 0
26 -14 23 0
-20 11 -2 0
14 -28 -20 0
-15 20 -6 0
-1 -14 25 0
-13 -23 -15 0
-30 -25 9 0
-5 -29 -19 0
6 3 22 0
13 -14 21 0
15 -12 -27 0
-3 29 -17 0
-8 21 -25 0
-19 -30 -28 0
-2 20 -30 0
12 -27 24 0
21 -1 16 0
-23 -8 -29 0
-9 -14 -10 0
-26 -28 5 0
-16 -2 18 0
-7 -6 -27 0
7 -26 -14 0
8 10 19 0
